(assert (forall ((pkt_0_8_a_0  Int  )(pkt_1_9_b_0  Int  )(pkt_2_a_c_0  Int  )(pkt_3_b_d_0  Int  )(pkt_4_c_e_0  Int  )(state_group_0_state_0_d_f_0  Int  )(state_group_0_state_1_e_10_0  Int  )) (let ((_n0 state_group_0_state_1_e_10_0 ))
(let ((_n1 pkt_4_c_e_0 ))
(let ((_n2 (=   _n1   _n0 ) ))
(let ((_n3 state_group_0_state_0_d_f_0 ))
(let ((_n4 pkt_3_b_d_0 ))
(let ((_n5 (<   _n4   _n3 ) ))
(let ((_n6 (not  _n5 ) ))
(let ((_n7 (and   _n6   _n2 ) ))
(let ((_n8 (or   _n5   _n7 ) ))
(let ((_n9 (ite  _n8   _n4   _n3  ) ))
(let ((_n10 false ))
(let ((_n11 (-  _n1 )))
(let ((_n12 (+   _n0   _n11 ) ))
(let ((_n13 (=   _n12   (ite  _n10  1 0) ) ))
(let ((_n14 (ite (=  _n12  0)  (ite  _n10  1 0)   _n4  ) ))
(let ((_n15 (-  _n14 )))
(let ((_n16 (ite (=  _n12  0)  (ite  _n10  1 0)   _n3  ) ))
(let ((_n17 (+   _n16   _n15 ) ))
(let ((_n18 (<   (ite  _n10  1 0)   _n17 ) ))
(let ((_n19 (ite (=  _n12  0)  _n10   _n18  ) ))
(let ((_n20 (not  _n19 ) ))
(let ((_n21 (or   _n20   _n13 ) ))
(let ((_n22 (ite  _n21   (ite  _n10  1 0)   _n4  ) ))
(let ((_n23 (ite  _n21   _n3   (ite  _n10  1 0)  ) ))
(let ((_n24 (+   _n23   _n22 ) ))
(let ((_n25 (ite (=  (ite  _n19  1 0)  1)  _n24   _n3  ) ))
(let ((_n26 (ite (=  _n12  0)  _n1   (ite  _n10  1 0)  ) ))
(let ((_n27 (-  _n26 )))
(let ((_n28 (ite (=  _n12  0)  _n0   (ite  _n10  1 0)  ) ))
(let ((_n29 (+   _n28   _n27 ) ))
(let ((_n30 (<   (ite  _n10  1 0)   _n29 ) ))
(let ((_n31 (ite (=  _n12  0)  _n30   _n10  ) ))
(let ((_n32 (not  _n13 ) ))
(let ((_n33 (or   _n31   _n32 ) ))
(let ((_n34 (ite  _n33   (ite  _n10  1 0)   _n4  ) ))
(let ((_n35 (ite  _n33   _n3   (ite  _n10  1 0)  ) ))
(let ((_n36 (+   _n35   _n34 ) ))
(let ((_n37 (and   _n31   _n13 ) ))
(let ((_n38 (ite  _n37   _n1   (ite  _n10  1 0)  ) ))
(let ((_n39 (ite  _n37   (ite  _n10  1 0)   _n3  ) ))
(let ((_n40 (+   _n39   _n38 ) ))
(let ((_n41 (ite (=  (ite  _n31  1 0)  1)  _n40   _n36  ) ))
(let ((_n42 (ite (=  (ite  _n13  1 0)  1)  _n41   _n25  ) ))
(let ((_n43 (=   _n42   _n9 ) ))
(let ((_n45 (ite  _n5   _n1   _n0  ) ))
(let ((_n46 (ite  _n21   (ite  _n10  1 0)   _n1  ) ))
(let ((_n47 (ite  _n21   _n0   (ite  _n10  1 0)  ) ))
(let ((_n48 (+   _n47   _n46 ) ))
(let ((_n49 (ite (=  (ite  _n19  1 0)  1)  _n48   _n0  ) ))
(let ((_n50 (ite  _n33   (ite  _n10  1 0)   _n1  ) ))
(let ((_n51 (ite  _n33   _n0   (ite  _n10  1 0)  ) ))
(let ((_n52 (+   _n51   _n50 ) ))
(let ((_n53 (ite  _n37   _n4   (ite  _n10  1 0)  ) ))
(let ((_n54 (ite  _n37   (ite  _n10  1 0)   _n0  ) ))
(let ((_n55 (+   _n54   _n53 ) ))
(let ((_n56 (ite (=  (ite  _n31  1 0)  1)  _n55   _n52  ) ))
(let ((_n57 (ite (=  (ite  _n13  1 0)  1)  _n56   _n49  ) ))
(let ((_n58 (=   _n57   _n45 ) ))
(let ((_n60 pkt_0_8_a_0 ))
(let ((_n61 (<   _n60   (ite  _n10  1 0) ) ))
(let ((_n62 (ite  _n61   (ite  _n10  1 0)   _n60  ) ))
(let ((_n63 (=   _n60   _n62 ) ))
(let ((_n65 pkt_2_a_c_0 ))
(let ((_n66 (ite (=  _n65  0)  _n1   (ite  _n10  1 0)  ) ))
(let ((_n67 (ite (=  _n65  0)  _n66   _n1  ) ))
(let ((_n68 (=   _n67   _n1 ) ))
(let ((_n70 pkt_1_9_b_0 ))
(implies  (and (and (>= state_group_0_state_1_e_10_0 0) (< state_group_0_state_1_e_10_0 1024 ))  (and (and (>= state_group_0_state_0_d_f_0 0) (< state_group_0_state_0_d_f_0 1024 ))  (and (and (>= pkt_4_c_e_0 0) (< pkt_4_c_e_0 1024 ))  (and (and (>= pkt_3_b_d_0 0) (< pkt_3_b_d_0 1024 ))  (and (and (>= pkt_2_a_c_0 0) (< pkt_2_a_c_0 1024 ))  (and (and (>= pkt_1_9_b_0 0) (< pkt_1_9_b_0 1024 ))  (and (>= pkt_0_8_a_0 0) (< pkt_0_8_a_0 1024 )) ) ) ) ) ) )   (and  _n43  _n58  _n63  _n68 )  ))))))))))))))))))))))))))))))))))))))))))))))))))))))))))))))))))))))
(check-sat)
(get-model)
(exit)